p wcnf 30 89 31
31 1 2 3 0
31 4 5 6 0
31 7 8 9 0
31 10 11 12 0
31 13 14 15 0
31 16 17 18 0
31 19 20 21 0
31 22 23 24 0
31 25 26 27 0
31 28 29 30 0
31 -1 -2 0
31 -1 -3 0
31 -2 -3 0
31 -4 -5 0
31 -4 -6 0
31 -5 -6 0
31 -7 -8 0
31 -7 -9 0
31 -8 -9 0
31 -10 -11 0
31 -10 -12 0
31 -11 -12 0
31 -13 -14 0
31 -13 -15 0
31 -14 -15 0
31 -16 -17 0
31 -16 -18 0
31 -17 -18 0
31 -19 -20 0
31 -19 -21 0
31 -20 -21 0
31 -22 -23 0
31 -22 -24 0
31 -23 -24 0
31 -25 -26 0
31 -25 -27 0
31 -26 -27 0
31 -28 -29 0
31 -28 -30 0
31 -29 -30 0
31 -1 -7 0
31 -2 -8 0
31 -3 -9 0
31 -1 -19 0
31 -2 -20 0
31 -3 -21 0
31 -1 -25 0
31 -2 -26 0
31 -3 -27 0
31 -4 -22 0
31 -5 -23 0
31 -6 -24 0
31 -4 -28 0
31 -5 -29 0
31 -6 -30 0
31 -7 -10 0
31 -8 -11 0
31 -9 -12 0
31 -10 -16 0
31 -11 -17 0
31 -12 -18 0
31 -10 -19 0
31 -11 -20 0
31 -12 -21 0
31 -13 -22 0
31 -14 -23 0
31 -15 -24 0
31 -16 -28 0
31 -17 -29 0
31 -18 -30 0
31 -19 -25 0
31 -20 -26 0
31 -21 -27 0
31 -22 -25 0
31 -23 -26 0
31 -24 -27 0
31 -25 -28 0
31 -26 -29 0
31 -27 -30 0
3 -3 0
3 -6 0
3 -9 0
3 -12 0
3 -15 0
3 -18 0
3 -21 0
3 -24 0
3 -27 0
3 -30 0
