%%MatrixMarket matrix coordinate real symmetric
25 25 49
1 1 25.0
2 1 1.0
3 1 1.0
4 1 1.0
5 1 1.0
6 1 1.0
7 1 1.0
8 1 1.0
9 1 1.0
10 1 1.0
11 1 1.0
12 1 1.0
13 1 1.0
14 1 1.0
15 1 1.0
16 1 1.0
17 1 1.0
18 1 1.0
19 1 1.0
20 1 1.0
21 1 1.0
22 1 1.0
23 1 1.0
24 1 1.0
25 1 1.0
2 2 25.0
3 3 25.0
4 4 25.0
5 5 25.0
6 6 25.0
7 7 25.0
8 8 25.0
9 9 25.0
10 10 25.0
11 11 25.0
12 12 25.0
13 13 25.0
14 14 25.0
15 15 25.0
16 16 25.0
17 17 25.0
18 18 25.0
19 19 25.0
20 20 25.0
21 21 25.0
22 22 25.0
23 23 25.0
24 24 25.0
25 25 25.0
