%%MatrixMarket matrix coordinate real symmetric
36 36 96
1 1 4.0
2 1 -1.0
7 1 -1.0
2 2 4.0
3 2 -1.0
8 2 -1.0
3 3 4.0
4 3 -1.0
9 3 -1.0
4 4 4.0
5 4 -1.0
10 4 -1.0
5 5 4.0
6 5 -1.0
11 5 -1.0
6 6 4.0
12 6 -1.0
7 7 4.0
8 7 -1.0
13 7 -1.0
8 8 4.0
9 8 -1.0
14 8 -1.0
9 9 4.0
10 9 -1.0
15 9 -1.0
10 10 4.0
11 10 -1.0
16 10 -1.0
11 11 4.0
12 11 -1.0
17 11 -1.0
12 12 4.0
18 12 -1.0
13 13 4.0
14 13 -1.0
19 13 -1.0
14 14 4.0
15 14 -1.0
20 14 -1.0
15 15 4.0
16 15 -1.0
21 15 -1.0
16 16 4.0
17 16 -1.0
22 16 -1.0
17 17 4.0
18 17 -1.0
23 17 -1.0
18 18 4.0
24 18 -1.0
19 19 4.0
20 19 -1.0
25 19 -1.0
20 20 4.0
21 20 -1.0
26 20 -1.0
21 21 4.0
22 21 -1.0
27 21 -1.0
22 22 4.0
23 22 -1.0
28 22 -1.0
23 23 4.0
24 23 -1.0
29 23 -1.0
24 24 4.0
30 24 -1.0
25 25 4.0
26 25 -1.0
31 25 -1.0
26 26 4.0
27 26 -1.0
32 26 -1.0
27 27 4.0
28 27 -1.0
33 27 -1.0
28 28 4.0
29 28 -1.0
34 28 -1.0
29 29 4.0
30 29 -1.0
35 29 -1.0
30 30 4.0
36 30 -1.0
31 31 4.0
32 31 -1.0
32 32 4.0
33 32 -1.0
33 33 4.0
34 33 -1.0
34 34 4.0
35 34 -1.0
35 35 4.0
36 35 -1.0
36 36 4.0
