c 4x4 grid graph minimum vertex cover (optimal cost = 8)
c 16 vertices, 24 edges. Bipartite, max matching = 8 (perfect), so min VC = 8.
c Vertex (i,j) = 4*i + j + 1 for i=0..3, j=0..3
c Horizontal edges + vertical edges
p wcnf 16 40 100
100 1 2 0
100 2 3 0
100 3 4 0
100 5 6 0
100 6 7 0
100 7 8 0
100 9 10 0
100 10 11 0
100 11 12 0
100 13 14 0
100 14 15 0
100 15 16 0
100 1 5 0
100 2 6 0
100 3 7 0
100 4 8 0
100 5 9 0
100 6 10 0
100 7 11 0
100 8 12 0
100 9 13 0
100 10 14 0
100 11 15 0
100 12 16 0
1 -1 0
1 -2 0
1 -3 0
1 -4 0
1 -5 0
1 -6 0
1 -7 0
1 -8 0
1 -9 0
1 -10 0
1 -11 0
1 -12 0
1 -13 0
1 -14 0
1 -15 0
1 -16 0
