! Network A: 2-port bandpass filter characteristic
! Simulated S-parameters
! Reference impedance: 50 ohm
# GHz S DB R 50
! Freq    S11_dB  ang(S11) S21_dB  ang(S21) S12_dB  ang(S12) S22_dB  ang(S22)
1.0   -10.0  150.0  -1.0   -15.0  -1.0   -15.0  -11.0  155.0  ! 1 GHz
2.0   -20.0  170.0  -0.2   -5.0   -0.2   -5.0   -22.0  172.0

3.0   -26.0  -178.0 -0.05  -2.0   -0.05  -2.0   -27.0  -176.0
4.0   -20.0  168.0  -0.2   -5.5   -0.2   -5.5   -22.0  170.0  ! 4 GHz
5.0   -10.0  148.0  -1.0   -16.0  -1.0   -16.0  -11.0  153.0
